num_features = 18;
num_usage_limits = 4;
num_plans = 3;
num_addons = 0;

features = ["privateChannels", "publicChannels", "directMessages", "threads", "mentions", "reactions", "pin", "messageHistory", "shareFilesAndLinks", "messageFormatting", "fileStoragePerAccount", "fileStoragePerUser", "customizableSidebars", "userGroups", "guestAccess", "manageUserAccounts", "dataEncryption", "phoneSupport"];
usage_limits = ["users", "useMessageHistory", "useFileStoragePerAccount", "useFileStoragePerUser"];
plans = ["FREE", "PRO", "SERVER"];
addons = [];

plans_prices = [0.0,1.99,1000000000.0];
addons_prices = [];

plans_features = array2d(PLANS, FEATURES, [
    % FREE
    1,1,1,1,1,1,1,1,1,1,1,0,0,0,0,0,1,1,
    % PRO
    1,1,1,1,1,1,1,1,1,1,0,1,1,1,1,1,1,1,
    % SERVER
    1,1,1,1,1,1,1,1,1,1,0,1,1,1,1,1,1,1
]);
plans_usage_limits = array2d(PLANS, USAGE_LIMITS, [
    % FREE
    1000000000,1000000000,10,10,
    % PRO
    1000000000,1000000000,10,10,
    % SERVER
    1000000000,1000000000,10,1000000000
]);

linked_features = array2d(USAGE_LIMITS, FEATURES, [
    % users
    0,0,0,0,0,0,0,0,0,0,0,0,0,0,0,0,0,0,
    % useMessageHistory
    0,0,0,1,0,0,0,1,0,0,0,0,0,0,0,0,0,0,
    % useFileStoragePerAccount
    0,0,0,0,0,0,0,0,0,0,1,0,0,0,0,0,0,0,
    % useFileStoragePerUser
    0,0,0,0,0,0,0,0,0,0,0,1,0,0,0,0,0,0
]);

addons_features = array2d(ADDONS, FEATURES, [
]);
addons_usage_limits = array2d(ADDONS, USAGE_LIMITS, [
]);
addons_usage_limits_extensions = array2d(ADDONS, USAGE_LIMITS, [
]);
addons_available_for = array2d(ADDONS, PLANS, [
]);

addons_depends_on = array2d(ADDONS, ADDONS, [
]);